acell      2.94 2.94 4.64

rprim      0.866025404 -0.500000000 0.000000000
           0.000000000  1.000000000 0.000000000
           0.000000000  0.000000000 1.000000000

regime    ngkpt


